c cksystemsgroup.github.io/unicorn
c CNF contains a total of 180 clauses.
c CNF contains a total of 114 variables.
c CNF clauses cover 1 bad states.
c Variable name mapping (49 names):
c   1: input[bit=0]
c   2: input[bit=0]
c   5: input[bit=1]
c   6: input[bit=1]
c   9: input[bit=2]
c   10: input[bit=2]
c   13: input[bit=3]
c   14: input[bit=3]
c   18: input[bit=4]
c   19: input[bit=4]
c   22: input[bit=5]
c   23: input[bit=5]
c   26: input[bit=6]
c   27: input[bit=6]
c   30: input[bit=7]
c   31: input[bit=7]
c   35: input[bit=8]
c   36: input[bit=8]
c   40: input[bit=9]
c   41: input[bit=9]
c   45: input[bit=10]
c   46: input[bit=10]
c   50: input[bit=11]
c   51: input[bit=11]
c   55: input[bit=12]
c   56: input[bit=12]
c   60: input[bit=13]
c   61: input[bit=13]
c   65: input[bit=14]
c   66: input[bit=14]
c   70: input[bit=15]
c   71: input[bit=15]
c   75: input[bit=16]
c   76: input[bit=16]
c   80: input[bit=17]
c   81: input[bit=17]
c   85: input[bit=18]
c   86: input[bit=18]
c   90: input[bit=19]
c   91: input[bit=19]
c   95: input[bit=20]
c   96: input[bit=20]
c   100: input[bit=21]
c   101: input[bit=21]
c   105: input[bit=22]
c   106: input[bit=22]
c   110: input[bit=23]
c   111: input[bit=23]
c   114: ?
p cnf 114 180
-1 -2 3 0
1 -3 0
2 -3 0
-3 -4 0
3 4 0
-5 -6 7 0
5 -7 0
6 -7 0
-4 -7 8 0
4 -8 0
7 -8 0
-9 -10 11 0
9 -11 0
10 -11 0
-8 -11 12 0
8 -12 0
11 -12 0
-13 -14 15 0
13 -15 0
14 -15 0
-15 -16 0
15 16 0
-12 -16 17 0
12 -17 0
16 -17 0
-18 -19 20 0
18 -20 0
19 -20 0
-17 -20 21 0
17 -21 0
20 -21 0
-22 -23 24 0
22 -24 0
23 -24 0
-21 -24 25 0
21 -25 0
24 -25 0
-26 -27 28 0
26 -28 0
27 -28 0
-25 -28 29 0
25 -29 0
28 -29 0
-30 -31 32 0
30 -32 0
31 -32 0
-32 -33 0
32 33 0
-29 -33 34 0
29 -34 0
33 -34 0
-35 -36 37 0
35 -37 0
36 -37 0
-37 -38 0
37 38 0
-34 -38 39 0
34 -39 0
38 -39 0
-40 -41 42 0
40 -42 0
41 -42 0
-42 -43 0
42 43 0
-39 -43 44 0
39 -44 0
43 -44 0
-45 -46 47 0
45 -47 0
46 -47 0
-47 -48 0
47 48 0
-44 -48 49 0
44 -49 0
48 -49 0
-50 -51 52 0
50 -52 0
51 -52 0
-52 -53 0
52 53 0
-49 -53 54 0
49 -54 0
53 -54 0
-55 -56 57 0
55 -57 0
56 -57 0
-57 -58 0
57 58 0
-54 -58 59 0
54 -59 0
58 -59 0
-60 -61 62 0
60 -62 0
61 -62 0
-62 -63 0
62 63 0
-59 -63 64 0
59 -64 0
63 -64 0
-65 -66 67 0
65 -67 0
66 -67 0
-67 -68 0
67 68 0
-64 -68 69 0
64 -69 0
68 -69 0
-70 -71 72 0
70 -72 0
71 -72 0
-72 -73 0
72 73 0
-69 -73 74 0
69 -74 0
73 -74 0
-75 -76 77 0
75 -77 0
76 -77 0
-77 -78 0
77 78 0
-74 -78 79 0
74 -79 0
78 -79 0
-80 -81 82 0
80 -82 0
81 -82 0
-82 -83 0
82 83 0
-79 -83 84 0
79 -84 0
83 -84 0
-85 -86 87 0
85 -87 0
86 -87 0
-87 -88 0
87 88 0
-84 -88 89 0
84 -89 0
88 -89 0
-90 -91 92 0
90 -92 0
91 -92 0
-92 -93 0
92 93 0
-89 -93 94 0
89 -94 0
93 -94 0
-95 -96 97 0
95 -97 0
96 -97 0
-97 -98 0
97 98 0
-94 -98 99 0
94 -99 0
98 -99 0
-100 -101 102 0
100 -102 0
101 -102 0
-102 -103 0
102 103 0
-99 -103 104 0
99 -104 0
103 -104 0
-105 -106 107 0
105 -107 0
106 -107 0
-107 -108 0
107 108 0
-104 -108 109 0
104 -109 0
108 -109 0
-110 -111 112 0
110 -112 0
111 -112 0
-112 -113 0
112 113 0
-109 -113 114 0
109 -114 0
113 -114 0
114 0
